c 1 __UCLIBC_HAS_THREADS_NATIVE__
c 2 __UCLIBC_HAS_XLOCALE__
c 6 __UCLIBC_HAS_LOCALE__
c 5 __MALLOC_STANDARD__
c 3 __UCLIBC_HAS_ADVANCED_REALTIME__
c 4 __UCLIBC_HAS_THREADS__
p cnf 6 1
-2 -4 -3 -5 -1 6 1
